Route #1: 26 58 38 10 31 39
Route #2: 11 59 14 53
Route #3: 40 32 44 3 16 63
Route #4: 1 43 42 64 41 56 23 49
Route #5: 24 50 18 55 25 9 12
Route #6: 17 51 6 33 2 30
Route #7: 48 21 61 22 28 62
Route #8: 47 36 60 20 37 5 29
Route #9: 45 15 57 13 54 19 8 35 7
Route #10: 46 34 52 27 4
Cost 833